p cnf 28 35
8 1 -3 0
1 -9 -5 0
-17 26 -13 0
18 -13 9 0
-20 -28 19 0
-2 -15 -18 0
15 -20 23 0
-3 17 22 0
23 -17 18 0
-11 21 8 0
8 -10 9 0
24 25 -16 0
-7 10 16 0
14 -10 14 0
-12 25 11 0
24 19 -9 0
-23 -28 -24 0
-13 -9 5 0
-9 -14 8 0
-2 -11 -7 0
-10 21 22 0
-27 2 20 0
18 25 -15 0
13 15 -4 0
1 13 -25 0
22 14 13 0
-23 -25 -4 0
11 -18 21 0
14 -18 -4 0
24 17 -20 0
24 27 16 0
-1 7 -15 0
-7 16 -7 0
21 16 13 0
-11 16 25 0
